data/lp_files/pEFS/104_7.lp
\ Model foo
\ LP format - for model browsing. Use MPS format to capture full model detail.
Minimize
  z
Subject To
 allocateEach[1]: x[1,1] + x[2,1] + x[3,1] + x[4,1] + x[5,1] + x[6,1] = 1
 allocateEach[2]: x[1,2] + x[2,2] + x[3,2] + x[4,2] + x[5,2] + x[6,2] = 1
 allocateEach[3]: x[1,3] + x[2,3] + x[3,3] + x[4,3] + x[5,3] + x[6,3] = 1
 allocateEach[4]: x[1,4] + x[2,4] + x[3,4] + x[4,4] + x[5,4] + x[6,4] = 1
 allocateAllCash: cashProportion[1] + cashProportion[2] + cashProportion[3]
   + cashProportion[4] + cashProportion[5] + cashProportion[6] = 1
 findWorstP[1,2]: z + 0.1559778511451374 cashProportion[1]
   - 0.1559778511451374 cashProportion[2] + 0.1367665791457613 x[1,1]
   + 0.2487586762679699 x[1,2] + 0.2545558530688642 x[1,3]
   + 0.2039410403722671 x[1,4] - 0.1367665791457613 x[2,1]
   - 0.2487586762679699 x[2,2] - 0.2545558530688642 x[2,3]
   - 0.2039410403722671 x[2,4] >= 0
 findWorstP[1,3]: z + 0.1559778511451374 cashProportion[1]
   - 0.1559778511451374 cashProportion[3] + 0.1367665791457613 x[1,1]
   + 0.2487586762679699 x[1,2] + 0.2545558530688642 x[1,3]
   + 0.2039410403722671 x[1,4] - 0.1367665791457613 x[3,1]
   - 0.2487586762679699 x[3,2] - 0.2545558530688642 x[3,3]
   - 0.2039410403722671 x[3,4] >= 0
 findWorstP[1,4]: z + 0.1559778511451374 cashProportion[1]
   - 0.1559778511451374 cashProportion[4] + 0.1367665791457613 x[1,1]
   + 0.2487586762679699 x[1,2] + 0.2545558530688642 x[1,3]
   + 0.2039410403722671 x[1,4] - 0.1367665791457613 x[4,1]
   - 0.2487586762679699 x[4,2] - 0.2545558530688642 x[4,3]
   - 0.2039410403722671 x[4,4] >= 0
 findWorstP[1,5]: z + 0.1559778511451374 cashProportion[1]
   - 0.1559778511451374 cashProportion[5] + 0.1367665791457613 x[1,1]
   + 0.2487586762679699 x[1,2] + 0.2545558530688642 x[1,3]
   + 0.2039410403722671 x[1,4] - 0.1367665791457613 x[5,1]
   - 0.2487586762679699 x[5,2] - 0.2545558530688642 x[5,3]
   - 0.2039410403722671 x[5,4] >= 0
 findWorstP[1,6]: z + 0.1559778511451374 cashProportion[1]
   - 0.1559778511451374 cashProportion[6] + 0.1367665791457613 x[1,1]
   + 0.2487586762679699 x[1,2] + 0.2545558530688642 x[1,3]
   + 0.2039410403722671 x[1,4] - 0.1367665791457613 x[6,1]
   - 0.2487586762679699 x[6,2] - 0.2545558530688642 x[6,3]
   - 0.2039410403722671 x[6,4] >= 0
 findWorstP[2,1]: z - 0.2 cashProportion[1] + 0.2 cashProportion[2]
   - 0.2941 x[1,1] - 0.2224666666666666 x[1,2] - 0.2206 x[1,3]
   - 0.0628333333333333 x[1,4] + 0.2941 x[2,1] + 0.2224666666666666 x[2,2]
   + 0.2206 x[2,3] + 0.0628333333333333 x[2,4] >= 0
 findWorstP[2,3]: z + 0.2 cashProportion[2] - 0.2 cashProportion[3]
   + 0.2941 x[2,1] + 0.2224666666666666 x[2,2] + 0.2206 x[2,3]
   + 0.0628333333333333 x[2,4] - 0.2941 x[3,1] - 0.2224666666666666 x[3,2]
   - 0.2206 x[3,3] - 0.0628333333333333 x[3,4] >= 0
 findWorstP[2,4]: z + 0.2 cashProportion[2] - 0.2 cashProportion[4]
   + 0.2941 x[2,1] + 0.2224666666666666 x[2,2] + 0.2206 x[2,3]
   + 0.0628333333333333 x[2,4] - 0.2941 x[4,1] - 0.2224666666666666 x[4,2]
   - 0.2206 x[4,3] - 0.0628333333333333 x[4,4] >= 0
 findWorstP[2,5]: z + 0.2 cashProportion[2] - 0.2 cashProportion[5]
   + 0.2941 x[2,1] + 0.2224666666666666 x[2,2] + 0.2206 x[2,3]
   + 0.0628333333333333 x[2,4] - 0.2941 x[5,1] - 0.2224666666666666 x[5,2]
   - 0.2206 x[5,3] - 0.0628333333333333 x[5,4] >= 0
 findWorstP[2,6]: z + 0.2 cashProportion[2] - 0.2 cashProportion[6]
   + 0.2941 x[2,1] + 0.2224666666666666 x[2,2] + 0.2206 x[2,3]
   + 0.0628333333333333 x[2,4] - 0.2941 x[6,1] - 0.2224666666666666 x[6,2]
   - 0.2206 x[6,3] - 0.0628333333333333 x[6,4] >= 0
 findWorstP[3,1]: z - 0.1873594803897077 cashProportion[1]
   + 0.1873594803897077 cashProportion[3] - 0.232044716462653 x[1,1]
   - 0.1620971771171621 x[1,2] - 0.1497626779915064 x[1,3]
   - 0.2687359480389707 x[1,4] + 0.232044716462653 x[3,1]
   + 0.1620971771171621 x[3,2] + 0.1497626779915064 x[3,3]
   + 0.2687359480389707 x[3,4] >= 0
 findWorstP[3,2]: z - 0.1873594803897077 cashProportion[2]
   + 0.1873594803897077 cashProportion[3] - 0.232044716462653 x[2,1]
   - 0.1620971771171621 x[2,2] - 0.1497626779915064 x[2,3]
   - 0.2687359480389707 x[2,4] + 0.232044716462653 x[3,1]
   + 0.1620971771171621 x[3,2] + 0.1497626779915064 x[3,3]
   + 0.2687359480389707 x[3,4] >= 0
 findWorstP[3,4]: z + 0.1873594803897077 cashProportion[3]
   - 0.1873594803897077 cashProportion[4] + 0.232044716462653 x[3,1]
   + 0.1620971771171621 x[3,2] + 0.1497626779915064 x[3,3]
   + 0.2687359480389707 x[3,4] - 0.232044716462653 x[4,1]
   - 0.1620971771171621 x[4,2] - 0.1497626779915064 x[4,3]
   - 0.2687359480389707 x[4,4] >= 0
 findWorstP[3,5]: z + 0.1873594803897077 cashProportion[3]
   - 0.1873594803897077 cashProportion[5] + 0.232044716462653 x[3,1]
   + 0.1620971771171621 x[3,2] + 0.1497626779915064 x[3,3]
   + 0.2687359480389707 x[3,4] - 0.232044716462653 x[5,1]
   - 0.1620971771171621 x[5,2] - 0.1497626779915064 x[5,3]
   - 0.2687359480389707 x[5,4] >= 0
 findWorstP[3,6]: z + 0.1873594803897077 cashProportion[3]
   - 0.1873594803897077 cashProportion[6] + 0.232044716462653 x[3,1]
   + 0.1620971771171621 x[3,2] + 0.1497626779915064 x[3,3]
   + 0.2687359480389707 x[3,4] - 0.232044716462653 x[6,1]
   - 0.1620971771171621 x[6,2] - 0.1497626779915064 x[6,3]
   - 0.2687359480389707 x[6,4] >= 0
 findWorstP[4,1]: z - 0.2731494127287626 cashProportion[1]
   + 0.2731494127287626 cashProportion[4] - 0.00309569334425931 x[1,1]
   - 0.348720750250387 x[1,2] - 0.127151051625239 x[1,3]
   - 0.2478830920513521 x[1,4] + 0.00309569334425931 x[4,1]
   + 0.348720750250387 x[4,2] + 0.127151051625239 x[4,3]
   + 0.2478830920513521 x[4,4] >= 0
 findWorstP[4,2]: z - 0.2731494127287626 cashProportion[2]
   + 0.2731494127287626 cashProportion[4] - 0.00309569334425931 x[2,1]
   - 0.348720750250387 x[2,2] - 0.127151051625239 x[2,3]
   - 0.2478830920513521 x[2,4] + 0.00309569334425931 x[4,1]
   + 0.348720750250387 x[4,2] + 0.127151051625239 x[4,3]
   + 0.2478830920513521 x[4,4] >= 0
 findWorstP[4,3]: z - 0.2731494127287626 cashProportion[3]
   + 0.2731494127287626 cashProportion[4] - 0.00309569334425931 x[3,1]
   - 0.348720750250387 x[3,2] - 0.127151051625239 x[3,3]
   - 0.2478830920513521 x[3,4] + 0.00309569334425931 x[4,1]
   + 0.348720750250387 x[4,2] + 0.127151051625239 x[4,3]
   + 0.2478830920513521 x[4,4] >= 0
 findWorstP[4,5]: z + 0.2731494127287626 cashProportion[4]
   - 0.2731494127287626 cashProportion[5] + 0.00309569334425931 x[4,1]
   + 0.348720750250387 x[4,2] + 0.127151051625239 x[4,3]
   + 0.2478830920513521 x[4,4] - 0.00309569334425931 x[5,1]
   - 0.348720750250387 x[5,2] - 0.127151051625239 x[5,3]
   - 0.2478830920513521 x[5,4] >= 0
 findWorstP[4,6]: z + 0.2731494127287626 cashProportion[4]
   - 0.2731494127287626 cashProportion[6] + 0.00309569334425931 x[4,1]
   + 0.348720750250387 x[4,2] + 0.127151051625239 x[4,3]
   + 0.2478830920513521 x[4,4] - 0.00309569334425931 x[6,1]
   - 0.348720750250387 x[6,2] - 0.127151051625239 x[6,3]
   - 0.2478830920513521 x[6,4] >= 0
 findWorstP[5,1]: z - 0.1818181818181819 cashProportion[1]
   + 0.1818181818181819 cashProportion[5] - 0.0560909090909091 x[1,1]
   - 0.2652727272727273 x[1,2] - 0.1964242424242424 x[1,3]
   - 0.3003939393939394 x[1,4] + 0.0560909090909091 x[5,1]
   + 0.2652727272727273 x[5,2] + 0.1964242424242424 x[5,3]
   + 0.3003939393939394 x[5,4] >= 0
 findWorstP[5,2]: z - 0.1818181818181819 cashProportion[2]
   + 0.1818181818181819 cashProportion[5] - 0.0560909090909091 x[2,1]
   - 0.2652727272727273 x[2,2] - 0.1964242424242424 x[2,3]
   - 0.3003939393939394 x[2,4] + 0.0560909090909091 x[5,1]
   + 0.2652727272727273 x[5,2] + 0.1964242424242424 x[5,3]
   + 0.3003939393939394 x[5,4] >= 0
 findWorstP[5,3]: z - 0.1818181818181819 cashProportion[3]
   + 0.1818181818181819 cashProportion[5] - 0.0560909090909091 x[3,1]
   - 0.2652727272727273 x[3,2] - 0.1964242424242424 x[3,3]
   - 0.3003939393939394 x[3,4] + 0.0560909090909091 x[5,1]
   + 0.2652727272727273 x[5,2] + 0.1964242424242424 x[5,3]
   + 0.3003939393939394 x[5,4] >= 0
 findWorstP[5,4]: z - 0.1818181818181819 cashProportion[4]
   + 0.1818181818181819 cashProportion[5] - 0.0560909090909091 x[4,1]
   - 0.2652727272727273 x[4,2] - 0.1964242424242424 x[4,3]
   - 0.3003939393939394 x[4,4] + 0.0560909090909091 x[5,1]
   + 0.2652727272727273 x[5,2] + 0.1964242424242424 x[5,3]
   + 0.3003939393939394 x[5,4] >= 0
 findWorstP[5,6]: z + 0.1818181818181819 cashProportion[5]
   - 0.1818181818181819 cashProportion[6] + 0.0560909090909091 x[5,1]
   + 0.2652727272727273 x[5,2] + 0.1964242424242424 x[5,3]
   + 0.3003939393939394 x[5,4] - 0.0560909090909091 x[6,1]
   - 0.2652727272727273 x[6,2] - 0.1964242424242424 x[6,3]
   - 0.3003939393939394 x[6,4] >= 0
 findWorstP[6,1]: z - 0.179329308386634 cashProportion[1]
   + 0.179329308386634 cashProportion[6] - 0.2387171976806743 x[1,1]
   - 0.2626576603502899 x[1,2] - 0.2215314722936219 x[1,3]
   - 0.09776436128878 x[1,4] + 0.2387171976806743 x[6,1]
   + 0.2626576603502899 x[6,2] + 0.2215314722936219 x[6,3]
   + 0.09776436128878 x[6,4] >= 0
 findWorstP[6,2]: z - 0.179329308386634 cashProportion[2]
   + 0.179329308386634 cashProportion[6] - 0.2387171976806743 x[2,1]
   - 0.2626576603502899 x[2,2] - 0.2215314722936219 x[2,3]
   - 0.09776436128878 x[2,4] + 0.2387171976806743 x[6,1]
   + 0.2626576603502899 x[6,2] + 0.2215314722936219 x[6,3]
   + 0.09776436128878 x[6,4] >= 0
 findWorstP[6,3]: z - 0.179329308386634 cashProportion[3]
   + 0.179329308386634 cashProportion[6] - 0.2387171976806743 x[3,1]
   - 0.2626576603502899 x[3,2] - 0.2215314722936219 x[3,3]
   - 0.09776436128878 x[3,4] + 0.2387171976806743 x[6,1]
   + 0.2626576603502899 x[6,2] + 0.2215314722936219 x[6,3]
   + 0.09776436128878 x[6,4] >= 0
 findWorstP[6,4]: z - 0.179329308386634 cashProportion[4]
   + 0.179329308386634 cashProportion[6] - 0.2387171976806743 x[4,1]
   - 0.2626576603502899 x[4,2] - 0.2215314722936219 x[4,3]
   - 0.09776436128878 x[4,4] + 0.2387171976806743 x[6,1]
   + 0.2626576603502899 x[6,2] + 0.2215314722936219 x[6,3]
   + 0.09776436128878 x[6,4] >= 0
 findWorstP[6,5]: z - 0.179329308386634 cashProportion[5]
   + 0.179329308386634 cashProportion[6] - 0.2387171976806743 x[5,1]
   - 0.2626576603502899 x[5,2] - 0.2215314722936219 x[5,3]
   - 0.09776436128878 x[5,4] + 0.2387171976806743 x[6,1]
   + 0.2626576603502899 x[6,2] + 0.2215314722936219 x[6,3]
   + 0.09776436128878 x[6,4] >= 0
Bounds
 z <= 1
 -infinity <= cashProportion[1] <= 1
 -infinity <= cashProportion[2] <= 1
 -infinity <= cashProportion[3] <= 1
 -infinity <= cashProportion[4] <= 1
 -infinity <= cashProportion[5] <= 1
 -infinity <= cashProportion[6] <= 1
Binaries
 x[1,1] x[1,2] x[1,3] x[1,4] x[2,1] x[2,2] x[2,3] x[2,4] x[3,1] x[3,2]
 x[3,3] x[3,4] x[4,1] x[4,2] x[4,3] x[4,4] x[5,1] x[5,2] x[5,3] x[5,4]
 x[6,1] x[6,2] x[6,3] x[6,4]
End
