data/mps_files/pEFS/104_7.mps
NAME foo
ROWS
 N  OBJ
 E  allocateEach[1]
 E  allocateEach[2]
 E  allocateEach[3]
 E  allocateEach[4]
 E  allocateAllCash
 G  findWorstP[1,2]
 G  findWorstP[1,3]
 G  findWorstP[1,4]
 G  findWorstP[1,5]
 G  findWorstP[1,6]
 G  findWorstP[2,1]
 G  findWorstP[2,3]
 G  findWorstP[2,4]
 G  findWorstP[2,5]
 G  findWorstP[2,6]
 G  findWorstP[3,1]
 G  findWorstP[3,2]
 G  findWorstP[3,4]
 G  findWorstP[3,5]
 G  findWorstP[3,6]
 G  findWorstP[4,1]
 G  findWorstP[4,2]
 G  findWorstP[4,3]
 G  findWorstP[4,5]
 G  findWorstP[4,6]
 G  findWorstP[5,1]
 G  findWorstP[5,2]
 G  findWorstP[5,3]
 G  findWorstP[5,4]
 G  findWorstP[5,6]
 G  findWorstP[6,1]
 G  findWorstP[6,2]
 G  findWorstP[6,3]
 G  findWorstP[6,4]
 G  findWorstP[6,5]
COLUMNS
    z         OBJ       1
    z         findWorstP[1,2]  1
    z         findWorstP[1,3]  1
    z         findWorstP[1,4]  1
    z         findWorstP[1,5]  1
    z         findWorstP[1,6]  1
    z         findWorstP[2,1]  1
    z         findWorstP[2,3]  1
    z         findWorstP[2,4]  1
    z         findWorstP[2,5]  1
    z         findWorstP[2,6]  1
    z         findWorstP[3,1]  1
    z         findWorstP[3,2]  1
    z         findWorstP[3,4]  1
    z         findWorstP[3,5]  1
    z         findWorstP[3,6]  1
    z         findWorstP[4,1]  1
    z         findWorstP[4,2]  1
    z         findWorstP[4,3]  1
    z         findWorstP[4,5]  1
    z         findWorstP[4,6]  1
    z         findWorstP[5,1]  1
    z         findWorstP[5,2]  1
    z         findWorstP[5,3]  1
    z         findWorstP[5,4]  1
    z         findWorstP[5,6]  1
    z         findWorstP[6,1]  1
    z         findWorstP[6,2]  1
    z         findWorstP[6,3]  1
    z         findWorstP[6,4]  1
    z         findWorstP[6,5]  1
    cashProportion[1]  allocateAllCash  1
    cashProportion[1]  findWorstP[1,2]  1.5597785114513740e-01
    cashProportion[1]  findWorstP[1,3]  1.5597785114513740e-01
    cashProportion[1]  findWorstP[1,4]  1.5597785114513740e-01
    cashProportion[1]  findWorstP[1,5]  1.5597785114513740e-01
    cashProportion[1]  findWorstP[1,6]  1.5597785114513740e-01
    cashProportion[1]  findWorstP[2,1]  -0.2
    cashProportion[1]  findWorstP[3,1]  -1.8735948038970771e-01
    cashProportion[1]  findWorstP[4,1]  -2.7314941272876264e-01
    cashProportion[1]  findWorstP[5,1]  -1.8181818181818185e-01
    cashProportion[1]  findWorstP[6,1]  -1.7932930838663402e-01
    cashProportion[2]  allocateAllCash  1
    cashProportion[2]  findWorstP[1,2]  -1.5597785114513740e-01
    cashProportion[2]  findWorstP[2,1]  0.2
    cashProportion[2]  findWorstP[2,3]  0.2
    cashProportion[2]  findWorstP[2,4]  0.2
    cashProportion[2]  findWorstP[2,5]  0.2
    cashProportion[2]  findWorstP[2,6]  0.2
    cashProportion[2]  findWorstP[3,2]  -1.8735948038970771e-01
    cashProportion[2]  findWorstP[4,2]  -2.7314941272876264e-01
    cashProportion[2]  findWorstP[5,2]  -1.8181818181818185e-01
    cashProportion[2]  findWorstP[6,2]  -1.7932930838663402e-01
    cashProportion[3]  allocateAllCash  1
    cashProportion[3]  findWorstP[1,3]  -1.5597785114513740e-01
    cashProportion[3]  findWorstP[2,3]  -0.2
    cashProportion[3]  findWorstP[3,1]  1.8735948038970771e-01
    cashProportion[3]  findWorstP[3,2]  1.8735948038970771e-01
    cashProportion[3]  findWorstP[3,4]  1.8735948038970771e-01
    cashProportion[3]  findWorstP[3,5]  1.8735948038970771e-01
    cashProportion[3]  findWorstP[3,6]  1.8735948038970771e-01
    cashProportion[3]  findWorstP[4,3]  -2.7314941272876264e-01
    cashProportion[3]  findWorstP[5,3]  -1.8181818181818185e-01
    cashProportion[3]  findWorstP[6,3]  -1.7932930838663402e-01
    cashProportion[4]  allocateAllCash  1
    cashProportion[4]  findWorstP[1,4]  -1.5597785114513740e-01
    cashProportion[4]  findWorstP[2,4]  -0.2
    cashProportion[4]  findWorstP[3,4]  -1.8735948038970771e-01
    cashProportion[4]  findWorstP[4,1]  2.7314941272876264e-01
    cashProportion[4]  findWorstP[4,2]  2.7314941272876264e-01
    cashProportion[4]  findWorstP[4,3]  2.7314941272876264e-01
    cashProportion[4]  findWorstP[4,5]  2.7314941272876264e-01
    cashProportion[4]  findWorstP[4,6]  2.7314941272876264e-01
    cashProportion[4]  findWorstP[5,4]  -1.8181818181818185e-01
    cashProportion[4]  findWorstP[6,4]  -1.7932930838663402e-01
    cashProportion[5]  allocateAllCash  1
    cashProportion[5]  findWorstP[1,5]  -1.5597785114513740e-01
    cashProportion[5]  findWorstP[2,5]  -0.2
    cashProportion[5]  findWorstP[3,5]  -1.8735948038970771e-01
    cashProportion[5]  findWorstP[4,5]  -2.7314941272876264e-01
    cashProportion[5]  findWorstP[5,1]  1.8181818181818185e-01
    cashProportion[5]  findWorstP[5,2]  1.8181818181818185e-01
    cashProportion[5]  findWorstP[5,3]  1.8181818181818185e-01
    cashProportion[5]  findWorstP[5,4]  1.8181818181818185e-01
    cashProportion[5]  findWorstP[5,6]  1.8181818181818185e-01
    cashProportion[5]  findWorstP[6,5]  -1.7932930838663402e-01
    cashProportion[6]  allocateAllCash  1
    cashProportion[6]  findWorstP[1,6]  -1.5597785114513740e-01
    cashProportion[6]  findWorstP[2,6]  -0.2
    cashProportion[6]  findWorstP[3,6]  -1.8735948038970771e-01
    cashProportion[6]  findWorstP[4,6]  -2.7314941272876264e-01
    cashProportion[6]  findWorstP[5,6]  -1.8181818181818185e-01
    cashProportion[6]  findWorstP[6,1]  1.7932930838663402e-01
    cashProportion[6]  findWorstP[6,2]  1.7932930838663402e-01
    cashProportion[6]  findWorstP[6,3]  1.7932930838663402e-01
    cashProportion[6]  findWorstP[6,4]  1.7932930838663402e-01
    cashProportion[6]  findWorstP[6,5]  1.7932930838663402e-01
    MARKER    'MARKER'                 'INTORG'
    x[1,1]    allocateEach[1]  1
    x[1,1]    findWorstP[1,2]  1.3676657914576132e-01
    x[1,1]    findWorstP[1,3]  1.3676657914576132e-01
    x[1,1]    findWorstP[1,4]  1.3676657914576132e-01
    x[1,1]    findWorstP[1,5]  1.3676657914576132e-01
    x[1,1]    findWorstP[1,6]  1.3676657914576132e-01
    x[1,1]    findWorstP[2,1]  -0.2941
    x[1,1]    findWorstP[3,1]  -2.3204471646265296e-01
    x[1,1]    findWorstP[4,1]  -3.0956933442593095e-03
    x[1,1]    findWorstP[5,1]  -5.6090909090909087e-02
    x[1,1]    findWorstP[6,1]  -2.3871719768067426e-01
    x[1,2]    allocateEach[2]  1
    x[1,2]    findWorstP[1,2]  2.4875867626796994e-01
    x[1,2]    findWorstP[1,3]  2.4875867626796994e-01
    x[1,2]    findWorstP[1,4]  2.4875867626796994e-01
    x[1,2]    findWorstP[1,5]  2.4875867626796994e-01
    x[1,2]    findWorstP[1,6]  2.4875867626796994e-01
    x[1,2]    findWorstP[2,1]  -2.2246666666666665e-01
    x[1,2]    findWorstP[3,1]  -1.6209717711716209e-01
    x[1,2]    findWorstP[4,1]  -3.4872075025038696e-01
    x[1,2]    findWorstP[5,1]  -2.6527272727272727e-01
    x[1,2]    findWorstP[6,1]  -2.6265766035028992e-01
    x[1,3]    allocateEach[3]  1
    x[1,3]    findWorstP[1,2]  2.5455585306886419e-01
    x[1,3]    findWorstP[1,3]  2.5455585306886419e-01
    x[1,3]    findWorstP[1,4]  2.5455585306886419e-01
    x[1,3]    findWorstP[1,5]  2.5455585306886419e-01
    x[1,3]    findWorstP[1,6]  2.5455585306886419e-01
    x[1,3]    findWorstP[2,1]  -2.2060000000000002e-01
    x[1,3]    findWorstP[3,1]  -1.4976267799150636e-01
    x[1,3]    findWorstP[4,1]  -0.127151051625239
    x[1,3]    findWorstP[5,1]  -1.9642424242424242e-01
    x[1,3]    findWorstP[6,1]  -2.2153147229362186e-01
    x[1,4]    allocateEach[4]  1
    x[1,4]    findWorstP[1,2]  2.0394104037226712e-01
    x[1,4]    findWorstP[1,3]  2.0394104037226712e-01
    x[1,4]    findWorstP[1,4]  2.0394104037226712e-01
    x[1,4]    findWorstP[1,5]  2.0394104037226712e-01
    x[1,4]    findWorstP[1,6]  2.0394104037226712e-01
    x[1,4]    findWorstP[2,1]  -6.2833333333333324e-02
    x[1,4]    findWorstP[3,1]  -2.6873594803897072e-01
    x[1,4]    findWorstP[4,1]  -2.4788309205135206e-01
    x[1,4]    findWorstP[5,1]  -3.0039393939393938e-01
    x[1,4]    findWorstP[6,1]  -9.7764361288779966e-02
    x[2,1]    allocateEach[1]  1
    x[2,1]    findWorstP[1,2]  -1.3676657914576132e-01
    x[2,1]    findWorstP[2,1]  0.2941
    x[2,1]    findWorstP[2,3]  0.2941
    x[2,1]    findWorstP[2,4]  0.2941
    x[2,1]    findWorstP[2,5]  0.2941
    x[2,1]    findWorstP[2,6]  0.2941
    x[2,1]    findWorstP[3,2]  -2.3204471646265296e-01
    x[2,1]    findWorstP[4,2]  -3.0956933442593095e-03
    x[2,1]    findWorstP[5,2]  -5.6090909090909087e-02
    x[2,1]    findWorstP[6,2]  -2.3871719768067426e-01
    x[2,2]    allocateEach[2]  1
    x[2,2]    findWorstP[1,2]  -2.4875867626796994e-01
    x[2,2]    findWorstP[2,1]  2.2246666666666665e-01
    x[2,2]    findWorstP[2,3]  2.2246666666666665e-01
    x[2,2]    findWorstP[2,4]  2.2246666666666665e-01
    x[2,2]    findWorstP[2,5]  2.2246666666666665e-01
    x[2,2]    findWorstP[2,6]  2.2246666666666665e-01
    x[2,2]    findWorstP[3,2]  -1.6209717711716209e-01
    x[2,2]    findWorstP[4,2]  -3.4872075025038696e-01
    x[2,2]    findWorstP[5,2]  -2.6527272727272727e-01
    x[2,2]    findWorstP[6,2]  -2.6265766035028992e-01
    x[2,3]    allocateEach[3]  1
    x[2,3]    findWorstP[1,2]  -2.5455585306886419e-01
    x[2,3]    findWorstP[2,1]  2.2060000000000002e-01
    x[2,3]    findWorstP[2,3]  2.2060000000000002e-01
    x[2,3]    findWorstP[2,4]  2.2060000000000002e-01
    x[2,3]    findWorstP[2,5]  2.2060000000000002e-01
    x[2,3]    findWorstP[2,6]  2.2060000000000002e-01
    x[2,3]    findWorstP[3,2]  -1.4976267799150636e-01
    x[2,3]    findWorstP[4,2]  -0.127151051625239
    x[2,3]    findWorstP[5,2]  -1.9642424242424242e-01
    x[2,3]    findWorstP[6,2]  -2.2153147229362186e-01
    x[2,4]    allocateEach[4]  1
    x[2,4]    findWorstP[1,2]  -2.0394104037226712e-01
    x[2,4]    findWorstP[2,1]  6.2833333333333324e-02
    x[2,4]    findWorstP[2,3]  6.2833333333333324e-02
    x[2,4]    findWorstP[2,4]  6.2833333333333324e-02
    x[2,4]    findWorstP[2,5]  6.2833333333333324e-02
    x[2,4]    findWorstP[2,6]  6.2833333333333324e-02
    x[2,4]    findWorstP[3,2]  -2.6873594803897072e-01
    x[2,4]    findWorstP[4,2]  -2.4788309205135206e-01
    x[2,4]    findWorstP[5,2]  -3.0039393939393938e-01
    x[2,4]    findWorstP[6,2]  -9.7764361288779966e-02
    x[3,1]    allocateEach[1]  1
    x[3,1]    findWorstP[1,3]  -1.3676657914576132e-01
    x[3,1]    findWorstP[2,3]  -0.2941
    x[3,1]    findWorstP[3,1]  2.3204471646265296e-01
    x[3,1]    findWorstP[3,2]  2.3204471646265296e-01
    x[3,1]    findWorstP[3,4]  2.3204471646265296e-01
    x[3,1]    findWorstP[3,5]  2.3204471646265296e-01
    x[3,1]    findWorstP[3,6]  2.3204471646265296e-01
    x[3,1]    findWorstP[4,3]  -3.0956933442593095e-03
    x[3,1]    findWorstP[5,3]  -5.6090909090909087e-02
    x[3,1]    findWorstP[6,3]  -2.3871719768067426e-01
    x[3,2]    allocateEach[2]  1
    x[3,2]    findWorstP[1,3]  -2.4875867626796994e-01
    x[3,2]    findWorstP[2,3]  -2.2246666666666665e-01
    x[3,2]    findWorstP[3,1]  1.6209717711716209e-01
    x[3,2]    findWorstP[3,2]  1.6209717711716209e-01
    x[3,2]    findWorstP[3,4]  1.6209717711716209e-01
    x[3,2]    findWorstP[3,5]  1.6209717711716209e-01
    x[3,2]    findWorstP[3,6]  1.6209717711716209e-01
    x[3,2]    findWorstP[4,3]  -3.4872075025038696e-01
    x[3,2]    findWorstP[5,3]  -2.6527272727272727e-01
    x[3,2]    findWorstP[6,3]  -2.6265766035028992e-01
    x[3,3]    allocateEach[3]  1
    x[3,3]    findWorstP[1,3]  -2.5455585306886419e-01
    x[3,3]    findWorstP[2,3]  -2.2060000000000002e-01
    x[3,3]    findWorstP[3,1]  1.4976267799150636e-01
    x[3,3]    findWorstP[3,2]  1.4976267799150636e-01
    x[3,3]    findWorstP[3,4]  1.4976267799150636e-01
    x[3,3]    findWorstP[3,5]  1.4976267799150636e-01
    x[3,3]    findWorstP[3,6]  1.4976267799150636e-01
    x[3,3]    findWorstP[4,3]  -0.127151051625239
    x[3,3]    findWorstP[5,3]  -1.9642424242424242e-01
    x[3,3]    findWorstP[6,3]  -2.2153147229362186e-01
    x[3,4]    allocateEach[4]  1
    x[3,4]    findWorstP[1,3]  -2.0394104037226712e-01
    x[3,4]    findWorstP[2,3]  -6.2833333333333324e-02
    x[3,4]    findWorstP[3,1]  2.6873594803897072e-01
    x[3,4]    findWorstP[3,2]  2.6873594803897072e-01
    x[3,4]    findWorstP[3,4]  2.6873594803897072e-01
    x[3,4]    findWorstP[3,5]  2.6873594803897072e-01
    x[3,4]    findWorstP[3,6]  2.6873594803897072e-01
    x[3,4]    findWorstP[4,3]  -2.4788309205135206e-01
    x[3,4]    findWorstP[5,3]  -3.0039393939393938e-01
    x[3,4]    findWorstP[6,3]  -9.7764361288779966e-02
    x[4,1]    allocateEach[1]  1
    x[4,1]    findWorstP[1,4]  -1.3676657914576132e-01
    x[4,1]    findWorstP[2,4]  -0.2941
    x[4,1]    findWorstP[3,4]  -2.3204471646265296e-01
    x[4,1]    findWorstP[4,1]  3.0956933442593095e-03
    x[4,1]    findWorstP[4,2]  3.0956933442593095e-03
    x[4,1]    findWorstP[4,3]  3.0956933442593095e-03
    x[4,1]    findWorstP[4,5]  3.0956933442593095e-03
    x[4,1]    findWorstP[4,6]  3.0956933442593095e-03
    x[4,1]    findWorstP[5,4]  -5.6090909090909087e-02
    x[4,1]    findWorstP[6,4]  -2.3871719768067426e-01
    x[4,2]    allocateEach[2]  1
    x[4,2]    findWorstP[1,4]  -2.4875867626796994e-01
    x[4,2]    findWorstP[2,4]  -2.2246666666666665e-01
    x[4,2]    findWorstP[3,4]  -1.6209717711716209e-01
    x[4,2]    findWorstP[4,1]  3.4872075025038696e-01
    x[4,2]    findWorstP[4,2]  3.4872075025038696e-01
    x[4,2]    findWorstP[4,3]  3.4872075025038696e-01
    x[4,2]    findWorstP[4,5]  3.4872075025038696e-01
    x[4,2]    findWorstP[4,6]  3.4872075025038696e-01
    x[4,2]    findWorstP[5,4]  -2.6527272727272727e-01
    x[4,2]    findWorstP[6,4]  -2.6265766035028992e-01
    x[4,3]    allocateEach[3]  1
    x[4,3]    findWorstP[1,4]  -2.5455585306886419e-01
    x[4,3]    findWorstP[2,4]  -2.2060000000000002e-01
    x[4,3]    findWorstP[3,4]  -1.4976267799150636e-01
    x[4,3]    findWorstP[4,1]  0.127151051625239
    x[4,3]    findWorstP[4,2]  0.127151051625239
    x[4,3]    findWorstP[4,3]  0.127151051625239
    x[4,3]    findWorstP[4,5]  0.127151051625239
    x[4,3]    findWorstP[4,6]  0.127151051625239
    x[4,3]    findWorstP[5,4]  -1.9642424242424242e-01
    x[4,3]    findWorstP[6,4]  -2.2153147229362186e-01
    x[4,4]    allocateEach[4]  1
    x[4,4]    findWorstP[1,4]  -2.0394104037226712e-01
    x[4,4]    findWorstP[2,4]  -6.2833333333333324e-02
    x[4,4]    findWorstP[3,4]  -2.6873594803897072e-01
    x[4,4]    findWorstP[4,1]  2.4788309205135206e-01
    x[4,4]    findWorstP[4,2]  2.4788309205135206e-01
    x[4,4]    findWorstP[4,3]  2.4788309205135206e-01
    x[4,4]    findWorstP[4,5]  2.4788309205135206e-01
    x[4,4]    findWorstP[4,6]  2.4788309205135206e-01
    x[4,4]    findWorstP[5,4]  -3.0039393939393938e-01
    x[4,4]    findWorstP[6,4]  -9.7764361288779966e-02
    x[5,1]    allocateEach[1]  1
    x[5,1]    findWorstP[1,5]  -1.3676657914576132e-01
    x[5,1]    findWorstP[2,5]  -0.2941
    x[5,1]    findWorstP[3,5]  -2.3204471646265296e-01
    x[5,1]    findWorstP[4,5]  -3.0956933442593095e-03
    x[5,1]    findWorstP[5,1]  5.6090909090909087e-02
    x[5,1]    findWorstP[5,2]  5.6090909090909087e-02
    x[5,1]    findWorstP[5,3]  5.6090909090909087e-02
    x[5,1]    findWorstP[5,4]  5.6090909090909087e-02
    x[5,1]    findWorstP[5,6]  5.6090909090909087e-02
    x[5,1]    findWorstP[6,5]  -2.3871719768067426e-01
    x[5,2]    allocateEach[2]  1
    x[5,2]    findWorstP[1,5]  -2.4875867626796994e-01
    x[5,2]    findWorstP[2,5]  -2.2246666666666665e-01
    x[5,2]    findWorstP[3,5]  -1.6209717711716209e-01
    x[5,2]    findWorstP[4,5]  -3.4872075025038696e-01
    x[5,2]    findWorstP[5,1]  2.6527272727272727e-01
    x[5,2]    findWorstP[5,2]  2.6527272727272727e-01
    x[5,2]    findWorstP[5,3]  2.6527272727272727e-01
    x[5,2]    findWorstP[5,4]  2.6527272727272727e-01
    x[5,2]    findWorstP[5,6]  2.6527272727272727e-01
    x[5,2]    findWorstP[6,5]  -2.6265766035028992e-01
    x[5,3]    allocateEach[3]  1
    x[5,3]    findWorstP[1,5]  -2.5455585306886419e-01
    x[5,3]    findWorstP[2,5]  -2.2060000000000002e-01
    x[5,3]    findWorstP[3,5]  -1.4976267799150636e-01
    x[5,3]    findWorstP[4,5]  -0.127151051625239
    x[5,3]    findWorstP[5,1]  1.9642424242424242e-01
    x[5,3]    findWorstP[5,2]  1.9642424242424242e-01
    x[5,3]    findWorstP[5,3]  1.9642424242424242e-01
    x[5,3]    findWorstP[5,4]  1.9642424242424242e-01
    x[5,3]    findWorstP[5,6]  1.9642424242424242e-01
    x[5,3]    findWorstP[6,5]  -2.2153147229362186e-01
    x[5,4]    allocateEach[4]  1
    x[5,4]    findWorstP[1,5]  -2.0394104037226712e-01
    x[5,4]    findWorstP[2,5]  -6.2833333333333324e-02
    x[5,4]    findWorstP[3,5]  -2.6873594803897072e-01
    x[5,4]    findWorstP[4,5]  -2.4788309205135206e-01
    x[5,4]    findWorstP[5,1]  3.0039393939393938e-01
    x[5,4]    findWorstP[5,2]  3.0039393939393938e-01
    x[5,4]    findWorstP[5,3]  3.0039393939393938e-01
    x[5,4]    findWorstP[5,4]  3.0039393939393938e-01
    x[5,4]    findWorstP[5,6]  3.0039393939393938e-01
    x[5,4]    findWorstP[6,5]  -9.7764361288779966e-02
    x[6,1]    allocateEach[1]  1
    x[6,1]    findWorstP[1,6]  -1.3676657914576132e-01
    x[6,1]    findWorstP[2,6]  -0.2941
    x[6,1]    findWorstP[3,6]  -2.3204471646265296e-01
    x[6,1]    findWorstP[4,6]  -3.0956933442593095e-03
    x[6,1]    findWorstP[5,6]  -5.6090909090909087e-02
    x[6,1]    findWorstP[6,1]  2.3871719768067426e-01
    x[6,1]    findWorstP[6,2]  2.3871719768067426e-01
    x[6,1]    findWorstP[6,3]  2.3871719768067426e-01
    x[6,1]    findWorstP[6,4]  2.3871719768067426e-01
    x[6,1]    findWorstP[6,5]  2.3871719768067426e-01
    x[6,2]    allocateEach[2]  1
    x[6,2]    findWorstP[1,6]  -2.4875867626796994e-01
    x[6,2]    findWorstP[2,6]  -2.2246666666666665e-01
    x[6,2]    findWorstP[3,6]  -1.6209717711716209e-01
    x[6,2]    findWorstP[4,6]  -3.4872075025038696e-01
    x[6,2]    findWorstP[5,6]  -2.6527272727272727e-01
    x[6,2]    findWorstP[6,1]  2.6265766035028992e-01
    x[6,2]    findWorstP[6,2]  2.6265766035028992e-01
    x[6,2]    findWorstP[6,3]  2.6265766035028992e-01
    x[6,2]    findWorstP[6,4]  2.6265766035028992e-01
    x[6,2]    findWorstP[6,5]  2.6265766035028992e-01
    x[6,3]    allocateEach[3]  1
    x[6,3]    findWorstP[1,6]  -2.5455585306886419e-01
    x[6,3]    findWorstP[2,6]  -2.2060000000000002e-01
    x[6,3]    findWorstP[3,6]  -1.4976267799150636e-01
    x[6,3]    findWorstP[4,6]  -0.127151051625239
    x[6,3]    findWorstP[5,6]  -1.9642424242424242e-01
    x[6,3]    findWorstP[6,1]  2.2153147229362186e-01
    x[6,3]    findWorstP[6,2]  2.2153147229362186e-01
    x[6,3]    findWorstP[6,3]  2.2153147229362186e-01
    x[6,3]    findWorstP[6,4]  2.2153147229362186e-01
    x[6,3]    findWorstP[6,5]  2.2153147229362186e-01
    x[6,4]    allocateEach[4]  1
    x[6,4]    findWorstP[1,6]  -2.0394104037226712e-01
    x[6,4]    findWorstP[2,6]  -6.2833333333333324e-02
    x[6,4]    findWorstP[3,6]  -2.6873594803897072e-01
    x[6,4]    findWorstP[4,6]  -2.4788309205135206e-01
    x[6,4]    findWorstP[5,6]  -3.0039393939393938e-01
    x[6,4]    findWorstP[6,1]  9.7764361288779966e-02
    x[6,4]    findWorstP[6,2]  9.7764361288779966e-02
    x[6,4]    findWorstP[6,3]  9.7764361288779966e-02
    x[6,4]    findWorstP[6,4]  9.7764361288779966e-02
    x[6,4]    findWorstP[6,5]  9.7764361288779966e-02
    MARKER    'MARKER'                 'INTEND'
RHS
    RHS1      allocateEach[1]  1
    RHS1      allocateEach[2]  1
    RHS1      allocateEach[3]  1
    RHS1      allocateEach[4]  1
    RHS1      allocateAllCash  1
BOUNDS
 UP BND1      z         1
 MI BND1      cashProportion[1]
 UP BND1      cashProportion[1]  1
 MI BND1      cashProportion[2]
 UP BND1      cashProportion[2]  1
 MI BND1      cashProportion[3]
 UP BND1      cashProportion[3]  1
 MI BND1      cashProportion[4]
 UP BND1      cashProportion[4]  1
 MI BND1      cashProportion[5]
 UP BND1      cashProportion[5]  1
 MI BND1      cashProportion[6]
 UP BND1      cashProportion[6]  1
 BV BND1      x[1,1]  
 BV BND1      x[1,2]  
 BV BND1      x[1,3]  
 BV BND1      x[1,4]  
 BV BND1      x[2,1]  
 BV BND1      x[2,2]  
 BV BND1      x[2,3]  
 BV BND1      x[2,4]  
 BV BND1      x[3,1]  
 BV BND1      x[3,2]  
 BV BND1      x[3,3]  
 BV BND1      x[3,4]  
 BV BND1      x[4,1]  
 BV BND1      x[4,2]  
 BV BND1      x[4,3]  
 BV BND1      x[4,4]  
 BV BND1      x[5,1]  
 BV BND1      x[5,2]  
 BV BND1      x[5,3]  
 BV BND1      x[5,4]  
 BV BND1      x[6,1]  
 BV BND1      x[6,2]  
 BV BND1      x[6,3]  
 BV BND1      x[6,4]  
ENDATA
